words_hard_train/7447.qaiger
aag 36 11 0 1 25
2
4
8
12
16
18
22
26
32
34
38
73
6 3 4
10 6 9
14 11 12
20 17 19
24 21 22
28 25 27
30 15 29
36 32 35
40 36 39
42 22 26
44 40 43
46 16 18
48 47 27
50 49 21
52 2 5
54 53 13
56 50 55
58 44 57
60 7 8
62 46 26
64 63 53
66 60 65
68 67 13
70 58 69
72 30 70
i0 2 y1[2]
i1 1 x2[7]
i2 2 y1[3]
i3 2 y1[4]
i4 1 x2[6]
i5 2 y1[1]
i6 1 x2[5]
i7 2 y1[0]
i8 2 y1[5]
i9 2 y1[6]
i10 2 y1[7]
o0 bool[0]
c
simplified
  !=
    xor
      >> 5
        1 x2
      1
    subtract
      46
      2 y1
