words_hard_train/7447.qaiger.qdimacs
p cnf 36 76
a 8 2 11 0
e 1 3 4 5 6 7 9 10 12 13 14 15 16 17 18 19 20 21 22 23 24 25 26 27 28 29 30 31 32 33 34 35 36 0
1 -2 3 0
-1 -3 0
2 -3 0
-3 4 5 0
3 -5 0
-4 -5 0
5 -6 7 0
-5 -7 0
6 -7 0
8 9 10 0
-8 -10 0
-9 -10 0
10 -11 12 0
-10 -12 0
11 -12 0
12 13 14 0
-12 -14 0
-13 -14 0
7 14 15 0
-7 -15 0
-14 -15 0
-16 17 18 0
16 -18 0
-17 -18 0
-18 19 20 0
18 -20 0
-19 -20 0
-11 -13 21 0
11 -21 0
13 -21 0
-20 21 22 0
20 -22 0
-21 -22 0
-8 -9 23 0
8 -23 0
9 -23 0
23 13 24 0
-23 -24 0
-13 -24 0
24 10 25 0
-24 -25 0
-10 -25 0
-1 2 26 0
1 -26 0
-2 -26 0
26 6 27 0
-26 -27 0
-6 -27 0
-25 27 28 0
25 -28 0
-27 -28 0
-22 28 29 0
22 -29 0
-28 -29 0
3 -4 30 0
-3 -30 0
4 -30 0
-23 -13 31 0
23 -31 0
13 -31 0
31 26 32 0
-31 -32 0
-26 -32 0
-30 32 33 0
30 -33 0
-32 -33 0
33 6 34 0
-33 -34 0
-6 -34 0
-29 34 35 0
29 -35 0
-34 -35 0
-15 -35 36 0
15 -36 0
35 -36 0
-36 0
